============================[ Problem Statistics ]=============================|                                                                             ||  Number of variables:          4242                                         ||  Number of clauses:            9781                                         ||  Parse time:                   0.18 s                                       ||                                                                             |============================[ Search Statistics ]==============================| Conflicts |          ORIGINAL         |          LEARNT          | Progress ||           |    Vars  Clauses Literals |    Limit  Clauses Lit/Cl |          |===============================================================================|       100 |    1591     5986   271127 |     2194      100     53 | 62.501 % |===============================================================================restarts              : 2conflicts             : 109            (342 /sec)decisions             : 280            (0.00 % random) (878 /sec)propagations          : 9866           (30928 /sec)conflict literals     : 6067           (95.85 % deleted)CPU time              : 0.319 sSATISFIABLE